%%% static parameters %%%
timespan = 1;
Fact = [4];
Distr1 = [15];
Distr2 = [30];
Clients_N = [300];
Demand_W = [15];
Lt0 = [4];
Lt1 = [4];
SS_ = [0.85];
DS_D = [8];
K = [200];
MA = [500];
%%% dynamic parameters %%%
lost_ratio_sales_ret_th = 0.6101857810920661;
lost_ratio_sales_ret_w = 30;
lost_ratio_sales_dis_th = 0.6570214088263182;
lost_ratio_sales_dis_w = 58;
lost_ratio_sales_fac_th = 0.13643818636589822;
lost_ratio_sales_fac_w = 17;
stock_customer_MA_mean_relative_th = 0.37170627934050726;
stock_customer_MA_mean_relative_w = 49;
stock_distributor_MA_mean_relative_th = 0.35833208729664145;
stock_distributor_MA_mean_relative_w = 25;
stock_retailer_MA_mean_relative_th = 0.19987021894175894;
stock_retailer_MA_mean_relative_w = 48;
stock_factory_MA_mean_relative_th = 0.299203828444341;
stock_factory_MA_mean_relative_w = 25;
